multiple_knapsack/multiple_knapsack.lp
\ENCODING=ISO-8859-1
\Problem name: 

Maximize
 obj1: 294 x1 + 294 x2 + 294 x3 + 93 x4 + 93 x5 + 93 x6 + 96 x7 + 96 x8 + 96 x9
       + 155 x10 + 155 x11 + 155 x12 + 294 x13 + 294 x14 + 294 x15 + 96 x16
       + 96 x17 + 96 x18 + 155 x19 + 155 x20 + 155 x21
Subject To
 x22: x1 + x2 + x3 <= 1
 x23: x4 + x5 + x6 <= 1
 x24: x7 + x8 + x9 <= 1
 x25: x10 + x11 + x12 <= 1
 x26: x13 + x14 + x15 <= 1
 x27: x16 + x17 + x18 <= 1
 x28: x19 + x20 + x21 <= 1
 x29: 500 x1 + 396 x4 + 195 x7 + 660 x10 + 600 x13 + 195 x16 + 660 x19 <= 884
 x30: 500 x2 + 396 x5 + 195 x8 + 660 x11 + 600 x14 + 195 x17 + 660 x20 <= 884
 x31: 500 x3 + 396 x6 + 195 x9 + 660 x12 + 600 x15 + 195 x18 + 660 x21 <= 884
Bounds
 0 <= x1 <= 1
 0 <= x2 <= 1
 0 <= x3 <= 1
 0 <= x4 <= 1
 0 <= x5 <= 1
 0 <= x6 <= 1
 0 <= x7 <= 1
 0 <= x8 <= 1
 0 <= x9 <= 1
 0 <= x10 <= 1
 0 <= x11 <= 1
 0 <= x12 <= 1
 0 <= x13 <= 1
 0 <= x14 <= 1
 0 <= x15 <= 1
 0 <= x16 <= 1
 0 <= x17 <= 1
 0 <= x18 <= 1
 0 <= x19 <= 1
 0 <= x20 <= 1
 0 <= x21 <= 1
Binaries
 x1  x2  x3  x4  x5  x6  x7  x8  x9  x10  x11  x12  x13  x14  x15  x16  x17 
 x18  x19  x20  x21 
End
